Instance: E076-14s.dat
Class:  1
75 --- number of customers (no depot)
14 --- number of vehicles
112 --- number of items
Capacity - height - width of vehicles
   100     40     20
Node - x - y - demand  Readytime Duetime
  0.00   40.00  40.00   0.00 0       569.00
  1.00   22.00  22.00  18.00   9.00   57.00
  2.00   36.00  26.00  26.00  73.00   98.00
  3.00   21.00  45.00  11.00  42.00   61.00
  4.00   45.00  35.00  30.00 155.00  171.00
  5.00   55.00  20.00  21.00 301.00  320.00
  6.00   33.00  34.00  19.00 300.00  315.00
  7.00   50.00  50.00  15.00 370.00  385.00
  8.00   55.00  45.00  16.00  19.00   57.00
  9.00   26.00  59.00  29.00 221.00  244.00
 10.00   40.00  66.00  26.00 219.00  240.00
 11.00   55.00  65.00  37.00 432.00  453.00
 12.00   35.00  51.00  16.00  36.00   65.00
 13.00   62.00  35.00  12.00  23.00   57.00
 14.00   62.00  57.00  31.00  59.00   84.00
 15.00   62.00  24.00   8.00 219.00  236.00
 16.00   21.00  36.00  19.00 355.00  375.00
 17.00   33.00  44.00  20.00  59.00   81.00
 18.00    9.00  56.00  13.00  39.00   57.00
 19.00   62.00  48.00  15.00 128.00  144.00
 20.00   66.00  14.00  22.00 108.00  136.00
 21.00   44.00  13.00  28.00  90.00  117.00
 22.00   26.00  13.00  12.00 192.00  221.00
 23.00   11.00  28.00   6.00 226.00  254.00
 24.00    7.00  43.00  27.00 413.00  443.00
 25.00   17.00  64.00  14.00 102.00  118.00
 26.00   41.00  46.00  18.00 252.00  270.00
 27.00   55.00  34.00  17.00 124.00  154.00
 28.00   35.00  16.00  29.00 254.00  271.00
 29.00   52.00  26.00  13.00 263.00  279.00
 30.00   43.00  26.00  22.00 116.00  132.00
 31.00   31.00  76.00  25.00 275.00  300.00
 32.00   22.00  53.00  28.00 108.00  128.00
 33.00   26.00  29.00  27.00 243.00  270.00
 34.00   50.00  40.00  19.00 467.00  488.00
 35.00   55.00  50.00  10.00 282.00  302.00
 36.00   54.00  10.00  12.00 101.00  129.00
 37.00   60.00  15.00  14.00 447.00  469.00
 38.00   47.00  66.00  24.00 422.00  451.00
 39.00   30.00  60.00  16.00  89.00  111.00
 40.00   30.00  50.00  33.00 243.00  267.00
 41.00   12.00  17.00  15.00 103.00  119.00
 42.00   15.00  14.00  11.00 182.00  208.00
 43.00   16.00  19.00  18.00 418.00  433.00
 44.00   21.00  48.00  17.00 113.00  143.00
 45.00   50.00  30.00  21.00 199.00  220.00
 46.00   51.00  42.00  27.00 346.00  366.00
 47.00   50.00  15.00  19.00  46.00   69.00
 48.00   48.00  21.00  20.00 430.00  448.00
 49.00   12.00  38.00   5.00 123.00  144.00
 50.00   15.00  56.00  22.00 259.00  284.00
 51.00   29.00  39.00  12.00 259.00  284.00
 52.00   54.00  38.00  19.00 206.00  225.00
 53.00   55.00  57.00  22.00 327.00  350.00
 54.00   67.00  41.00  16.00 441.00  465.00
 55.00   10.00  70.00   7.00 124.00  145.00
 56.00    6.00  25.00  26.00 454.00  473.00
 57.00   65.00  27.00  14.00 184.00  204.00
 58.00   40.00  60.00  21.00 232.00  255.00
 59.00   70.00  64.00  24.00 225.00  253.00
 60.00   64.00   4.00  13.00 293.00  318.00
 61.00   36.00   6.00  15.00  37.00   65.00
 62.00   30.00  20.00  18.00  48.00   63.00
 63.00   20.00  30.00  11.00 187.00  210.00
 64.00   15.00   5.00  28.00 417.00  444.00
 65.00   50.00  70.00   9.00 291.00  310.00
 66.00   57.00  72.00  37.00 250.00  268.00
 67.00   45.00  42.00  30.00 322.00  338.00
 68.00   38.00  33.00  10.00 458.00  475.00
 69.00   50.00   4.00   8.00  12.00   57.00
 70.00   66.00   8.00  11.00  17.00   57.00
 71.00   59.00   5.00   3.00 324.00  352.00
 72.00   35.00  60.00   1.00 375.00  391.00
 73.00   27.00  24.00   6.00 460.00  482.00
 74.00   40.00  20.00  10.00 229.00  247.00
 75.00   40.00  37.00  20.00 426.00  453.00                          
Node - number of items - h - w for each item
    0   0
    1   1    9   10
    2   1   17    2
    3   1   10    4
    4   2   13    5   25    3
    5   2    6   10   34    3
    6   1   19    8
    7   2   25    3   26    2
    8   2   10    4   26    3
    9   2    7   10   27    3
   10   2    8   17   20    3
   11   2    6   12   10    4
   12   2    8    9   17    3
   13   1   25    3
   14   2    5   16   13    5
   15   1    6   18
   16   1    5    9
   17   2    8   17    6   12
   18   1    6   10
   19   1    7   14
   20   1    4   11
   21   2    5   15   12    9
   22   1   22    2
   23   1    7    9
   24   1   12    5
   25   2   10    6   35    4
   26   1   14    8
   27   1    9    8
   28   1    8   16
   29   1    6    9
   30   2    4   13    6    8
   31   1   34    4
   32   1   29    2
   33   1   14    8
   34   1    7    8
   35   2    7   11   30    2
   36   1    6   16
   37   1    8   11
   38   2   34    4   25    2
   39   2    7    9   20    6
   40   1   25    2
   41   2    5   10   15    9
   42   2    8    9   36    3
   43   1    6   11
   44   2    7   14   18    7
   45   2   24    4   29    3
   46   1   13    8
   47   1   15    7
   48   2    6   14   34    3
   49   2    7   18   32    3
   50   1   25    3
   51   1    6   17
   52   1    5   16
   53   1    7   18
   54   2   19   10   27    2
   55   2    7   15   23    3
   56   2    6   18    6    8
   57   1   26    4
   58   1   30    3
   59   1   22    3
   60   1   17    6
   61   2    6   18    7   10
   62   2    7   17   22    3
   63   1   16    3
   64   2   11    5   28    3
   65   2   15    8   19    3
   66   2   19    8   35    4
   67   2   17   10   10    8
   68   2   35    4   26    3
   69   1   11    6
   70   2   19    7   12    5
   71   2    7   16   16    9
   72   2    4   17    9   10
   73   2    9    9   13    5
   74   1    6    8
   75   2   23    4   21    2

   56   1    1    1
   57   1    1    1
   58   1    1    1
   59   1    1    1
   60   1    1    1
   61   1    1    1
   62   1    1    1
   63   1    1    1
   64   1    1    1
   65   1    1    1
   66   1    1    1
   67   1    1    1
   68   1    1    1
   69   1    1    1
   70   1    1    1
   71   1    1    1
   72   1    1    1
   73   1    1    1
   74   1    1    1
   75   1    1    1













               
  
